11
1 0 3
2 0 29
2 1 25
3 0 14
3 1 40
3 2 14
4 0 1
4 1 15
4 2 43
4 3 32
5 0 40
5 1 30
5 2 24
5 3 3
5 4 12
6 0 23
6 1 15
6 2 38
6 3 11
6 4 26
6 5 34
7 0 23
7 1 46
7 2 6
7 3 11
7 4 25
7 5 23
7 6 34
8 0 6
8 1 12
8 2 1
8 3 25
8 4 41
8 5 28
8 6 37
8 7 28
9 0 9
9 1 9
9 2 6
9 3 3
9 4 17
9 5 2
9 6 26
9 7 25
9 8 20
10 0 41
10 1 46
10 2 46
10 3 19
10 4 4
10 5 32
10 6 40
10 7 27
10 8 14
10 9 32
